NAME : X-n429-k61
COMMENT : "Generated by Uchoa, Pecin, Pessoa, Poggi, Subramanian, and Vidal (2013)"
TYPE : CVRP
DIMENSION : 429
EDGE_WEIGHT_TYPE : EUC_2D
CAPACITY : 536
NODE_COORD_SECTION
1 238 446
2 749 750
3 960 879
4 914 116
5 517 477
6 554 143
7 850 488
8 739 177
9 229 160
10 539 573
11 901 821
12 787 399
13 974 203
14 89 387
15 561 27
16 103 139
17 174 826
18 40 578
19 359 23
20 440 649
21 588 265
22 182 275
23 401 993
24 751 564
25 797 274
26 756 252
27 871 882
28 693 417
29 710 620
30 960 422
31 530 904
32 124 126
33 67 587
34 440 336
35 219 38
36 609 504
37 936 474
38 800 689
39 358 530
40 914 753
41 210 96
42 95 816
43 441 389
44 506 963
45 114 285
46 333 191
47 545 892
48 59 618
49 698 385
50 977 931
51 822 79
52 951 91
53 341 759
54 439 290
55 1 258
56 756 147
57 252 284
58 588 168
59 895 501
60 759 442
61 967 855
62 244 601
63 888 148
64 442 18
65 847 877
66 683 267
67 446 301
68 997 815
69 586 777
70 129 986
71 613 331
72 811 156
73 704 494
74 265 216
75 511 373
76 981 261
77 48 985
78 723 558
79 839 828
80 803 737
81 296 719
82 589 252
83 374 862
84 277 82
85 451 183
86 904 681
87 474 908
88 609 185
89 346 382
90 158 866
91 572 161
92 704 828
93 142 331
94 801 969
95 680 88
96 672 178
97 827 566
98 728 793
99 888 917
100 326 298
101 718 636
102 792 283
103 866 141
104 682 640
105 961 604
106 299 23
107 358 22
108 460 546
109 27 552
110 508 739
111 692 85
112 582 748
113 220 76
114 128 795
115 268 622
116 673 871
117 167 789
118 827 698
119 68 190
120 561 928
121 328 817
122 719 595
123 152 111
124 780 824
125 486 302
126 877 775
127 156 976
128 62 854
129 257 906
130 824 163
131 796 134
132 848 204
133 581 299
134 37 832
135 364 210
136 778 453
137 229 676
138 448 488
139 234 586
140 194 65
141 300 238
142 939 983
143 354 914
144 647 901
145 719 709
146 845 806
147 753 610
148 384 707
149 741 825
150 457 590
151 35 357
152 862 623
153 447 838
154 518 607
155 886 602
156 235 680
157 249 16
158 724 269
159 567 58
160 865 296
161 387 143
162 222 629
163 419 205
164 813 784
165 426 19
166 116 881
167 361 788
168 346 845
169 762 959
170 961 860
171 388 315
172 433 70
173 116 292
174 264 540
175 76 564
176 247 445
177 42 866
178 988 538
179 77 75
180 664 842
181 419 541
182 46 609
183 624 658
184 761 523
185 954 696
186 807 151
187 22 882
188 320 646
189 682 723
190 591 702
191 163 587
192 327 755
193 467 531
194 172 439
195 8 378
196 469 286
197 502 45
198 278 681
199 104 123
200 638 65
201 806 705
202 87 388
203 70 459
204 427 812
205 727 965
206 736 661
207 108 285
208 635 631
209 442 797
210 808 238
211 494 268
212 761 524
213 455 188
214 843 3
215 84 342
216 509 878
217 98 641
218 835 478
219 814 202
220 285 973
221 33 673
222 729 323
223 193 813
224 702 480
225 748 318
226 925 844
227 814 904
228 68 961
229 59 627
230 773 483
231 845 468
232 904 365
233 613 161
234 79 325
235 532 267
236 426 537
237 382 505
238 603 595
239 700 327
240 58 709
241 166 753
242 554 159
243 251 439
244 925 3
245 97 16
246 97 24
247 667 660
248 355 936
249 130 923
250 852 837
251 507 813
252 381 911
253 554 116
254 387 383
255 908 985
256 236 723
257 479 755
258 728 93
259 85 31
260 861 58
261 348 13
262 850 535
263 833 72
264 393 995
265 433 581
266 184 919
267 20 992
268 680 498
269 330 163
270 115 593
271 100 942
272 768 928
273 466 983
274 477 550
275 599 837
276 406 531
277 596 274
278 60 921
279 622 862
280 550 949
281 301 792
282 108 477
283 354 963
284 856 708
285 493 303
286 817 131
287 557 353
288 183 731
289 910 91
290 833 437
291 72 12
292 94 829
293 619 456
294 761 88
295 317 184
296 357 202
297 516 212
298 655 419
299 789 881
300 439 945
301 823 190
302 523 905
303 561 376
304 13 539
305 591 737
306 827 661
307 788 713
308 455 357
309 200 213
310 982 944
311 199 197
312 344 164
313 859 498
314 855 650
315 605 903
316 961 616
317 100 482
318 266 819
319 391 167
320 791 757
321 291 577
322 490 126
323 25 95
324 20 522
325 121 204
326 755 392
327 549 56
328 43 240
329 110 305
330 739 76
331 84 184
332 953 127
333 108 836
334 76 779
335 331 883
336 45 791
337 791 266
338 854 741
339 66 316
340 322 731
341 162 83
342 110 342
343 648 917
344 987 835
345 53 290
346 339 605
347 508 883
348 946 885
349 628 906
350 986 694
351 660 678
352 309 48
353 873 461
354 949 410
355 193 531
356 890 388
357 104 508
358 81 698
359 778 937
360 704 356
361 469 110
362 687 142
363 158 154
364 471 294
365 439 348
366 25 467
367 661 710
368 113 935
369 316 819
370 807 40
371 687 897
372 255 902
373 730 134
374 698 366
375 219 270
376 728 209
377 137 420
378 814 593
379 315 153
380 60 763
381 324 822
382 226 7
383 613 135
384 989 857
385 904 996
386 460 538
387 828 569
388 951 678
389 819 618
390 991 254
391 253 75
392 588 802
393 840 877
394 750 865
395 260 38
396 244 697
397 63 980
398 620 219
399 800 109
400 467 220
401 417 647
402 938 810
403 898 705
404 507 121
405 154 615
406 993 267
407 162 507
408 817 539
409 358 136
410 527 863
411 275 964
412 555 502
413 439 480
414 237 9
415 501 789
416 79 432
417 636 429
418 272 761
419 178 460
420 454 640
421 515 783
422 734 311
423 226 723
424 946 827
425 473 856
426 176 494
427 641 87
428 523 585
429 231 980
PICKUP_AND_DELIVERY_SECTION
1 0 0 1000000000 0 0 0
2 0 0 1000000000 0 0 55
3 0 0 1000000000 0 0 64
4 0 0 1000000000 0 0 100
5 0 0 1000000000 0 0 66
6 0 0 1000000000 0 0 68
7 0 0 1000000000 0 0 95
8 0 0 1000000000 0 0 67
9 0 0 1000000000 0 0 100
10 0 0 1000000000 0 0 75
11 0 0 1000000000 0 65 0
12 0 0 1000000000 0 0 98
13 0 0 1000000000 0 0 100
14 0 0 1000000000 0 0 66
15 0 0 1000000000 0 0 82
16 0 0 1000000000 0 0 84
17 0 0 1000000000 0 0 89
18 0 0 1000000000 0 0 62
19 0 0 1000000000 0 0 64
20 0 0 1000000000 0 0 87
21 0 0 1000000000 0 94 0
22 0 0 1000000000 0 0 75
23 0 0 1000000000 0 0 53
24 0 0 1000000000 0 0 99
25 0 0 1000000000 0 0 85
26 0 0 1000000000 0 0 87
27 0 0 1000000000 0 0 83
28 0 0 1000000000 0 0 82
29 0 0 1000000000 0 0 78
30 0 0 1000000000 0 0 84
31 0 0 1000000000 0 67 0
32 0 0 1000000000 0 0 61
33 0 0 1000000000 0 0 56
34 0 0 1000000000 0 0 63
35 0 0 1000000000 0 0 98
36 0 0 1000000000 0 0 79
37 0 0 1000000000 0 0 95
38 0 0 1000000000 0 0 92
39 0 0 1000000000 0 0 51
40 0 0 1000000000 0 0 66
41 0 0 1000000000 0 50 0
42 0 0 1000000000 0 0 82
43 0 0 1000000000 0 0 66
44 0 0 1000000000 0 0 75
45 0 0 1000000000 0 0 73
46 0 0 1000000000 0 0 83
47 0 0 1000000000 0 0 76
48 0 0 1000000000 0 0 72
49 0 0 1000000000 0 0 62
50 0 0 1000000000 0 0 78
51 0 0 1000000000 0 56 0
52 0 0 1000000000 0 0 98
53 0 0 1000000000 0 0 56
54 0 0 1000000000 0 0 51
55 0 0 1000000000 0 0 84
56 0 0 1000000000 0 0 81
57 0 0 1000000000 0 0 65
58 0 0 1000000000 0 0 61
59 0 0 1000000000 0 0 64
60 0 0 1000000000 0 0 78
61 0 0 1000000000 0 78 0
62 0 0 1000000000 0 0 78
63 0 0 1000000000 0 0 60
64 0 0 1000000000 0 0 59
65 0 0 1000000000 0 0 80
66 0 0 1000000000 0 0 88
67 0 0 1000000000 0 0 96
68 0 0 1000000000 0 0 75
69 0 0 1000000000 0 0 81
70 0 0 1000000000 0 0 51
71 0 0 1000000000 0 61 0
72 0 0 1000000000 0 0 67
73 0 0 1000000000 0 0 56
74 0 0 1000000000 0 0 87
75 0 0 1000000000 0 0 88
76 0 0 1000000000 0 0 54
77 0 0 1000000000 0 0 50
78 0 0 1000000000 0 0 99
79 0 0 1000000000 0 0 85
80 0 0 1000000000 0 0 79
81 0 0 1000000000 0 94 0
82 0 0 1000000000 0 0 86
83 0 0 1000000000 0 0 85
84 0 0 1000000000 0 0 58
85 0 0 1000000000 0 0 82
86 0 0 1000000000 0 0 52
87 0 0 1000000000 0 0 52
88 0 0 1000000000 0 0 60
89 0 0 1000000000 0 0 66
90 0 0 1000000000 0 0 84
91 0 0 1000000000 0 62 0
92 0 0 1000000000 0 0 83
93 0 0 1000000000 0 0 60
94 0 0 1000000000 0 0 84
95 0 0 1000000000 0 0 78
96 0 0 1000000000 0 0 97
97 0 0 1000000000 0 0 51
98 0 0 1000000000 0 0 79
99 0 0 1000000000 0 0 54
100 0 0 1000000000 0 0 54
101 0 0 1000000000 0 84 0
102 0 0 1000000000 0 0 75
103 0 0 1000000000 0 0 94
104 0 0 1000000000 0 0 60
105 0 0 1000000000 0 0 100
106 0 0 1000000000 0 0 90
107 0 0 1000000000 0 0 75
108 0 0 1000000000 0 0 51
109 0 0 1000000000 0 0 90
110 0 0 1000000000 0 0 90
111 0 0 1000000000 0 79 0
112 0 0 1000000000 0 0 93
113 0 0 1000000000 0 0 64
114 0 0 1000000000 0 0 86
115 0 0 1000000000 0 0 97
116 0 0 1000000000 0 0 83
117 0 0 1000000000 0 0 77
118 0 0 1000000000 0 0 54
119 0 0 1000000000 0 0 81
120 0 0 1000000000 0 0 76
121 0 0 1000000000 0 72 0
122 0 0 1000000000 0 0 56
123 0 0 1000000000 0 0 74
124 0 0 1000000000 0 0 62
125 0 0 1000000000 0 0 84
126 0 0 1000000000 0 0 80
127 0 0 1000000000 0 0 91
128 0 0 1000000000 0 0 60
129 0 0 1000000000 0 0 54
130 0 0 1000000000 0 0 89
131 0 0 1000000000 0 68 0
132 0 0 1000000000 0 0 79
133 0 0 1000000000 0 0 61
134 0 0 1000000000 0 0 88
135 0 0 1000000000 0 0 71
136 0 0 1000000000 0 0 84
137 0 0 1000000000 0 0 64
138 0 0 1000000000 0 0 95
139 0 0 1000000000 0 0 72
140 0 0 1000000000 0 0 79
141 0 0 1000000000 0 100 0
142 0 0 1000000000 0 0 83
143 0 0 1000000000 0 0 78
144 0 0 1000000000 0 0 53
145 0 0 1000000000 0 0 57
146 0 0 1000000000 0 0 81
147 0 0 1000000000 0 0 86
148 0 0 1000000000 0 0 86
149 0 0 1000000000 0 0 51
150 0 0 1000000000 0 0 84
151 0 0 1000000000 0 88 0
152 0 0 1000000000 0 0 67
153 0 0 1000000000 0 0 65
154 0 0 1000000000 0 0 80
155 0 0 1000000000 0 0 94
156 0 0 1000000000 0 0 79
157 0 0 1000000000 0 0 56
158 0 0 1000000000 0 0 91
159 0 0 1000000000 0 0 69
160 0 0 1000000000 0 0 90
161 0 0 1000000000 0 71 0
162 0 0 1000000000 0 0 70
163 0 0 1000000000 0 0 83
164 0 0 1000000000 0 0 63
165 0 0 1000000000 0 0 71
166 0 0 1000000000 0 0 66
167 0 0 1000000000 0 0 63
168 0 0 1000000000 0 0 77
169 0 0 1000000000 0 0 81
170 0 0 1000000000 0 0 50
171 0 0 1000000000 0 75 0
172 0 0 1000000000 0 0 51
173 0 0 1000000000 0 0 88
174 0 0 1000000000 0 0 56
175 0 0 1000000000 0 0 53
176 0 0 1000000000 0 0 100
177 0 0 1000000000 0 0 55
178 0 0 1000000000 0 0 73
179 0 0 1000000000 0 0 100
180 0 0 1000000000 0 0 81
181 0 0 1000000000 0 61 0
182 0 0 1000000000 0 0 68
183 0 0 1000000000 0 0 94
184 0 0 1000000000 0 0 72
185 0 0 1000000000 0 0 78
186 0 0 1000000000 0 0 57
187 0 0 1000000000 0 0 66
188 0 0 1000000000 0 0 98
189 0 0 1000000000 0 0 86
190 0 0 1000000000 0 0 95
191 0 0 1000000000 0 83 0
192 0 0 1000000000 0 0 75
193 0 0 1000000000 0 0 85
194 0 0 1000000000 0 0 73
195 0 0 1000000000 0 0 93
196 0 0 1000000000 0 0 73
197 0 0 1000000000 0 0 71
198 0 0 1000000000 0 0 87
199 0 0 1000000000 0 0 89
200 0 0 1000000000 0 0 79
201 0 0 1000000000 0 85 0
202 0 0 1000000000 0 0 61
203 0 0 1000000000 0 0 79
204 0 0 1000000000 0 0 83
205 0 0 1000000000 0 0 60
206 0 0 1000000000 0 0 84
207 0 0 1000000000 0 0 74
208 0 0 1000000000 0 0 71
209 0 0 1000000000 0 0 93
210 0 0 1000000000 0 0 62
211 0 0 1000000000 0 82 0
212 0 0 1000000000 0 0 83
213 0 0 1000000000 0 0 64
214 0 0 1000000000 0 0 83
215 0 0 1000000000 0 0 70
216 0 0 1000000000 0 0 81
217 0 0 1000000000 0 0 94
218 0 0 1000000000 0 0 89
219 0 0 1000000000 0 0 88
220 0 0 1000000000 0 0 83
221 0 0 1000000000 0 80 0
222 0 0 1000000000 0 0 66
223 0 0 1000000000 0 0 53
224 0 0 1000000000 0 0 54
225 0 0 1000000000 0 0 77
226 0 0 1000000000 0 0 100
227 0 0 1000000000 0 0 96
228 0 0 1000000000 0 0 70
229 0 0 1000000000 0 0 68
230 0 0 1000000000 0 0 78
231 0 0 1000000000 0 70 0
232 0 0 1000000000 0 0 78
233 0 0 1000000000 0 0 58
234 0 0 1000000000 0 0 77
235 0 0 1000000000 0 0 80
236 0 0 1000000000 0 0 87
237 0 0 1000000000 0 0 77
238 0 0 1000000000 0 0 95
239 0 0 1000000000 0 0 61
240 0 0 1000000000 0 0 55
241 0 0 1000000000 0 50 0
242 0 0 1000000000 0 0 51
243 0 0 1000000000 0 0 78
244 0 0 1000000000 0 0 54
245 0 0 1000000000 0 0 70
246 0 0 1000000000 0 0 55
247 0 0 1000000000 0 0 86
248 0 0 1000000000 0 0 82
249 0 0 1000000000 0 0 95
250 0 0 1000000000 0 0 76
251 0 0 1000000000 0 54 0
252 0 0 1000000000 0 0 98
253 0 0 1000000000 0 0 97
254 0 0 1000000000 0 0 84
255 0 0 1000000000 0 0 100
256 0 0 1000000000 0 0 67
257 0 0 1000000000 0 0 83
258 0 0 1000000000 0 0 51
259 0 0 1000000000 0 0 84
260 0 0 1000000000 0 0 69
261 0 0 1000000000 0 71 0
262 0 0 1000000000 0 0 64
263 0 0 1000000000 0 0 76
264 0 0 1000000000 0 0 65
265 0 0 1000000000 0 0 83
266 0 0 1000000000 0 0 100
267 0 0 1000000000 0 0 73
268 0 0 1000000000 0 0 78
269 0 0 1000000000 0 0 96
270 0 0 1000000000 0 0 63
271 0 0 1000000000 0 84 0
272 0 0 1000000000 0 0 94
273 0 0 1000000000 0 0 61
274 0 0 1000000000 0 0 92
275 0 0 1000000000 0 0 83
276 0 0 1000000000 0 0 60
277 0 0 1000000000 0 0 85
278 0 0 1000000000 0 0 62
279 0 0 1000000000 0 0 62
280 0 0 1000000000 0 0 64
281 0 0 1000000000 0 63 0
282 0 0 1000000000 0 0 72
283 0 0 1000000000 0 0 59
284 0 0 1000000000 0 0 56
285 0 0 1000000000 0 0 94
286 0 0 1000000000 0 0 74
287 0 0 1000000000 0 0 93
288 0 0 1000000000 0 0 52
289 0 0 1000000000 0 0 84
290 0 0 1000000000 0 0 80
291 0 0 1000000000 0 55 0
292 0 0 1000000000 0 0 86
293 0 0 1000000000 0 0 88
294 0 0 1000000000 0 0 72
295 0 0 1000000000 0 0 78
296 0 0 1000000000 0 0 77
297 0 0 1000000000 0 0 92
298 0 0 1000000000 0 0 81
299 0 0 1000000000 0 0 52
300 0 0 1000000000 0 0 71
301 0 0 1000000000 0 73 0
302 0 0 1000000000 0 0 68
303 0 0 1000000000 0 0 64
304 0 0 1000000000 0 0 73
305 0 0 1000000000 0 0 59
306 0 0 1000000000 0 0 85
307 0 0 1000000000 0 0 93
308 0 0 1000000000 0 0 65
309 0 0 1000000000 0 0 67
310 0 0 1000000000 0 0 80
311 0 0 1000000000 0 69 0
312 0 0 1000000000 0 0 66
313 0 0 1000000000 0 0 84
314 0 0 1000000000 0 0 76
315 0 0 1000000000 0 0 50
316 0 0 1000000000 0 0 73
317 0 0 1000000000 0 0 78
318 0 0 1000000000 0 0 62
319 0 0 1000000000 0 0 52
320 0 0 1000000000 0 0 100
321 0 0 1000000000 0 62 0
322 0 0 1000000000 0 0 87
323 0 0 1000000000 0 0 53
324 0 0 1000000000 0 0 82
325 0 0 1000000000 0 0 75
326 0 0 1000000000 0 0 80
327 0 0 1000000000 0 0 96
328 0 0 1000000000 0 0 55
329 0 0 1000000000 0 0 69
330 0 0 1000000000 0 0 71
331 0 0 1000000000 0 64 0
332 0 0 1000000000 0 0 79
333 0 0 1000000000 0 0 66
334 0 0 1000000000 0 0 84
335 0 0 1000000000 0 0 72
336 0 0 1000000000 0 0 84
337 0 0 1000000000 0 0 77
338 0 0 1000000000 0 0 82
339 0 0 1000000000 0 0 53
340 0 0 1000000000 0 0 82
341 0 0 1000000000 0 74 0
342 0 0 1000000000 0 0 84
343 0 0 1000000000 0 0 77
344 0 0 1000000000 0 0 79
345 0 0 1000000000 0 0 88
346 0 0 1000000000 0 0 92
347 0 0 1000000000 0 0 70
348 0 0 1000000000 0 0 63
349 0 0 1000000000 0 0 58
350 0 0 1000000000 0 0 75
351 0 0 1000000000 0 50 0
352 0 0 1000000000 0 0 97
353 0 0 1000000000 0 0 52
354 0 0 1000000000 0 0 74
355 0 0 1000000000 0 0 74
356 0 0 1000000000 0 0 73
357 0 0 1000000000 0 0 92
358 0 0 1000000000 0 0 63
359 0 0 1000000000 0 0 100
360 0 0 1000000000 0 0 87
361 0 0 1000000000 0 96 0
362 0 0 1000000000 0 0 74
363 0 0 1000000000 0 0 54
364 0 0 1000000000 0 0 65
365 0 0 1000000000 0 0 86
366 0 0 1000000000 0 0 89
367 0 0 1000000000 0 0 77
368 0 0 1000000000 0 0 65
369 0 0 1000000000 0 0 98
370 0 0 1000000000 0 0 84
371 0 0 1000000000 0 58 0
372 0 0 1000000000 0 0 75
373 0 0 1000000000 0 0 64
374 0 0 1000000000 0 0 51
375 0 0 1000000000 0 0 56
376 0 0 1000000000 0 0 90
377 0 0 1000000000 0 0 59
378 0 0 1000000000 0 0 69
379 0 0 1000000000 0 0 66
380 0 0 1000000000 0 0 89
381 0 0 1000000000 0 93 0
382 0 0 1000000000 0 0 90
383 0 0 1000000000 0 0 55
384 0 0 1000000000 0 0 83
385 0 0 1000000000 0 0 86
386 0 0 1000000000 0 0 93
387 0 0 1000000000 0 0 63
388 0 0 1000000000 0 0 72
389 0 0 1000000000 0 0 95
390 0 0 1000000000 0 0 98
391 0 0 1000000000 0 59 0
392 0 0 1000000000 0 0 61
393 0 0 1000000000 0 0 56
394 0 0 1000000000 0 0 90
395 0 0 1000000000 0 0 67
396 0 0 1000000000 0 0 96
397 0 0 1000000000 0 0 87
398 0 0 1000000000 0 0 57
399 0 0 1000000000 0 0 100
400 0 0 1000000000 0 0 55
401 0 0 1000000000 0 52 0
402 0 0 1000000000 0 0 94
403 0 0 1000000000 0 0 54
404 0 0 1000000000 0 0 59
405 0 0 1000000000 0 0 96
406 0 0 1000000000 0 0 60
407 0 0 1000000000 0 0 78
408 0 0 1000000000 0 0 88
409 0 0 1000000000 0 0 79
410 0 0 1000000000 0 0 61
411 0 0 1000000000 0 83 0
412 0 0 1000000000 0 0 64
413 0 0 1000000000 0 0 88
414 0 0 1000000000 0 0 83
415 0 0 1000000000 0 0 89
416 0 0 1000000000 0 0 99
417 0 0 1000000000 0 0 96
418 0 0 1000000000 0 0 95
419 0 0 1000000000 0 0 65
420 0 0 1000000000 0 0 95
421 0 0 1000000000 0 93 0
422 0 0 1000000000 0 0 61
423 0 0 1000000000 0 0 97
424 0 0 1000000000 0 0 68
425 0 0 1000000000 0 0 83
426 0 0 1000000000 0 0 70
427 0 0 1000000000 0 0 99
428 0 0 1000000000 0 0 84
429 0 0 1000000000 0 0 78
